Name:		mgval_0.50_6B
Optimal value:	210
#Vehicles:	4
Capacity:	120
Depot Node:	1
#Nodes:		31
#Edges:		22
#Arcs:		44
#Required N:	23
#Required E:	11
#Required A:	22

ReN.	DEMAND	S. COST
N2	12	12
N4	6	6
N5	14	14
N6	17	17
N7	13	13
N8	21	21
N9	12	12
N12	12	12
N13	14	14
N14	3	3
N15	4	4
N16	8	8
N17	5	5
N18	12	12
N19	20	20
N21	14	14
N23	7	7
N24	2	2
N26	6	6
N27	5	5
N28	7	7
N29	10	10
N30	12	12

ReE.	FROM N.	TO N.	T. COST	DEMAND	S. COST
E12	28	31	3	4	4
E13	2	3	1	14	14
E14	6	7	3	9	9
E15	3	9	2	5	5
E16	19	20	4	12	12
E17	10	16	2	8	8
E18	23	24	3	10	10
E19	11	17	4	10	10
E20	11	12	5	9	9
E21	4	13	3	8	8
E22	20	22	5	11	11

EDGE	FROM N.	TO N.	T. COST
NrE1	1	7	10
NrE2	19	22	2
NrE3	1	30	4
NrE4	1	2	2
NrE5	12	18	5
NrE6	18	19	5
NrE7	6	31	3
NrE8	9	13	6
NrE9	21	22	4
NrE10	5	10	4
NrE11	23	25	3

ReA.	FROM N.	TO N.	T. COST	DEMAND	S. COST
A23	26	27	1	1	1
A24	21	19	3	4	4
A25	11	10	4	5	5
A26	21	18	3	4	4
A27	25	28	5	6	6
A28	3	4	5	6	6
A29	16	17	2	4	4
A30	26	23	2	3	3
A31	27	29	2	4	4
A32	29	31	2	5	5
A33	11	6	2	12	12
A34	10	11	4	5	5
A35	29	27	2	4	4
A36	28	25	5	6	6
A37	1	31	3	2	2
A38	14	10	1	4	4
A39	8	9	7	6	6
A40	12	8	8	14	14
A41	9	8	7	6	6
A42	23	26	2	3	3
A43	31	1	3	2	2
A44	29	28	3	9	9

ARC	FROM N.	TO N.	T. COST
NrA1	15	14	5
NrA2	18	21	3
NrA3	24	27	2
NrA4	8	7	3
NrA5	28	26	5
NrA6	2	8	6
NrA7	14	15	5
NrA8	5	31	1
NrA9	19	21	3
NrA10	19	13	6
NrA11	13	12	4
NrA12	27	26	1
NrA13	4	3	5
NrA14	16	15	3
NrA15	17	16	2
NrA16	13	19	6
NrA17	8	2	6
NrA18	29	30	7
NrA19	9	4	9
NrA20	27	24	2
NrA21	6	5	3
NrA22	26	28	5
